(set-logic HORN)
(set-info :source |
    Benchmark: C_VC
    Output by Princess (http://www.philipp.ruemmer.org/princess.shtml)
|)
(set-info :status unsat)
;===============================================================================
; Encoding of Heap sorts and operations
;-------------------------------------------------------------------------------
(define-sort Addr() Int)
(declare-datatypes ((AddrRange 0))
                   (((AddrRange (AddrRangeStart Addr) (AddrRangeSize Int)))))

(declare-datatypes ((HeapObject 0))
                   (((O_Int (getInt Int)) (O_UInt (getUInt Int)) (O_Addr (getAddr Addr)) (defObj))))
(declare-datatypes ((BatchAllocResHeap 0) (AllocResHeap 0) (Heap 0))
                   (((BatchAllocResHeap   (newBatchHeap Heap) (newAddrRange AddrRange)))
                   ((AllocResHeap   (newHeap Heap) (newAddr Addr)))
                    ((HeapCtor (HeapSize Int)
                               (HeapContents (Array Addr HeapObject))))))
(define-fun nullAddr  () Addr 0)
(define-fun validHeap     ((h Heap) (p Addr)) Bool
  (and (>= (HeapSize h) p) (> p 0)))
(define-fun emptyHeap () Heap (
  HeapCtor 0 (( as const (Array Addr HeapObject)) defObj)))
(define-fun readHeap ((h Heap) (p Addr)) HeapObject
  (ite (validHeap h p)
       (select (HeapContents h) p)
       defObj))
(define-fun writeHeap ((h Heap) (p Addr) (o HeapObject)) Heap
  (ite (validHeap h p)
       (HeapCtor (HeapSize h) (store (HeapContents h) p o))
       h))
(define-fun allocHeap   ((h Heap) (o HeapObject)) AllocResHeap
  (AllocResHeap (HeapCtor (+ 1 (HeapSize h))
                    (store (HeapContents h) (+ 1 (HeapSize h)) o))
          (+ 1 (HeapSize h))))
(define-fun Heap-eq     ((h1 Heap) (h2 Heap)) Bool
  (forall ((p Addr))
          (and (= (validHeap h1 p) (validHeap h2 p))
               (= (readHeap h1 p) (readHeap h2 p)))))
(define-fun nthAddrRange((ar AddrRange) (n Int)) Addr
  (ite (and (>= n 0) (< n (AddrRangeSize ar)))
       (+ (AddrRangeStart ar) n)
       nullAddr))
(define-fun withinHeap ((ar AddrRange ) (p Addr)) Bool
  (and (>= p (AddrRangeStart ar)) (< p (+ (AddrRangeStart ar) (AddrRangeSize ar)))))

(declare-fun batchAllocHeap     (Heap Heap HeapObject Int Int) Bool)
(declare-fun batchAllocPostHeap (Heap Heap HeapObject Int) Bool)

(assert (forall ((h1 Heap) (h2 Heap) (o HeapObject) (n1 Int) (n2 Int))
                (=> (and (> n2 0) (batchAllocHeap h1 h2 o n1 n2))
                   (batchAllocHeap h1 (newHeap (allocHeap h2 o)) o n1 (- n2 1)))))
(assert (forall ((h1 Heap) (h2 Heap) (o HeapObject) (n1 Int) (n2 Int))
                (=> (and (<= n2 0) (batchAllocHeap h1 h2 o n1 n2))
                   (batchAllocPostHeap h1 h2 o n1))))

(declare-fun batchWriteHeap     (Heap Heap Addr Addr HeapObject Int Int) Bool)
(declare-fun batchWritePostHeap (Heap Heap Addr HeapObject Int) Bool)

(assert (forall ((h1 Heap) (h2 Heap) (a1 Addr) (a2 Addr) (o HeapObject) (n1 Int) (n2 Int))
                (=> (and (> n2 0) (batchWriteHeap h1 h2 a1 a2 o n1 n2))
                   (batchWriteHeap h1 (writeHeap h2 a2 o) a1 (+ a2 1) o n1 (- n2 1)))))
(assert (forall ((h1 Heap) (h2 Heap) (a1 Addr) (a2 Addr) (o HeapObject) (n1 Int) (n2 Int))
                (=> (and (<= n2 0) (batchWriteHeap h1 h2 a1 a2 o n1 n2))
                   (batchWritePostHeap h1 h2 a1 o n1))))

;===============================================================================
(declare-fun inv_main11 (Heap Int AddrRange Int Int) Bool)
(declare-fun inv_main16 (Heap Int AddrRange Int Int) Bool)
(declare-fun inv_main17 (Heap Int AddrRange Int Int) Bool)
(declare-fun inv_main25 (Heap Int AddrRange Int Int AddrRange Int) Bool)
(declare-fun inv_main28 (Heap Int AddrRange Int Int AddrRange Int) Bool)
(declare-fun inv_main30 (Heap Int AddrRange Int Int AddrRange Int) Bool)
(declare-fun inv_main33 (Heap Int AddrRange Int Int AddrRange Int Int) Bool)
(declare-fun inv_main38 (Heap Int AddrRange Int Int AddrRange Int AddrRange Int Int Int) Bool)
(declare-fun inv_main43 (Heap Int AddrRange Int Int AddrRange Int AddrRange Int Int) Bool)
(declare-fun inv_main48 (Heap Int AddrRange Int Int AddrRange Int) Bool)
(declare-fun inv_main52 (Heap Int AddrRange Int Int AddrRange Int) Bool)
(declare-fun inv_main6 (Heap Int AddrRange Int Int) Bool)
(assert (forall ((var0 Int) (var1 Int) (var2 AddrRange) (var3 Int) (var4 Int) (var5 Heap) (var6 Heap)) (or (not (and (batchAllocHeapPostHeap emptyHeap var5 (O_Int var4) 100000) (and (and (and (= var6 emptyHeap) (= var2 (AddrRange (ite (<= 0 99999) (+ (HeapSize emptyHeap) 1) (HeapSize emptyHeap)) 100000))) (= var3 0)) true))) (inv_main6 var5 var3 var2 var1 var0))))
(assert (forall ((var0 Int) (var1 Int) (var2 AddrRange) (var3 Int) (var4 Int) (var5 Heap) (var6 Heap)) (or (not (and (and (and (= var6 emptyHeap) (= var2 (AddrRange (ite (<= 0 99999) (+ (HeapSize emptyHeap) 1) (HeapSize emptyHeap)) 100000))) (= var3 0)) true)) (batchAllocHeap emptyHeap emptyHeap (O_Int var4) 100000 100000))))
(assert (forall ((var0 Int) (var1 Int) (var2 AddrRange) (var3 Int) (var4 Heap)) (or (not (and (and (inv_main17 var4 var3 var2 var1 var0) (is-O_Int (readHeap var4 (nthAddrRange var2 var0)))) (is-O_Int (readHeap var4 (nthAddrRange var2 var1))))) (inv_main16 var4 var3 var2 var1 (+ var0 1)))))
(assert (forall ((var0 Int) (var1 Int) (var2 AddrRange) (var3 Int) (var4 Heap)) (or (not (and (and (inv_main16 var4 var3 var2 var1 var0) (not (<= 0 (+ (+ (* (- 1) var0) var3) (* (- 1) 1))))) (<= 0 (+ (+ (* (- 1) (+ var1 1)) var3) (* (- 1) 1))))) (inv_main16 var4 var3 var2 (+ var1 1) (+ (+ 1 var1) 1)))))
(assert (forall ((var0 Int) (var1 AddrRange) (var2 Int) (var3 Heap) (var4 Int) (var5 Int) (var6 Int) (var7 Int) (var8 AddrRange) (var9 Int) (var10 Heap)) (or (not (and (and (and (and (and (and (and (and (and (inv_main11 var10 var9 var8 var7 var6) (= var0 var6)) (= var4 var7)) (= var1 var8)) (= var5 var9)) (= var3 (writeHeap var10 (nthAddrRange var8 var7) (O_Int var2)))) (is-O_Int (readHeap var10 (nthAddrRange var8 var7)))) (is-O_Int (readHeap var10 (nthAddrRange var8 var7)))) (not (<= 0 (+ (+ (* (- 1) (+ var4 1)) 100000) (* (- 1) 1))))) (<= 0 (+ var5 (* (- 1) 1))))) (inv_main16 var3 var5 var1 0 1))))
(assert (forall ((var0 Int) (var1 Int) (var2 AddrRange) (var3 Int) (var4 Heap)) (or (not (and (inv_main16 var4 var3 var2 var1 var0) (<= 0 (+ (+ (* (- 1) var0) var3) (* (- 1) 1))))) (inv_main17 var4 var3 var2 var1 var0))))
(assert (forall ((var0 AddrRange) (var1 Int) (var2 Int) (var3 AddrRange) (var4 Int) (var5 Int) (var6 Heap) (var7 Int) (var8 Int) (var9 AddrRange) (var10 Int) (var11 Int) (var12 AddrRange) (var13 Int) (var14 Heap)) (or (not (and (and (and (and (and (and (and (and (and (and (inv_main25 var14 var13 var12 var11 var10 var9 var8) (= var7 var8)) (= var0 var9)) (= var1 var10)) (= var2 var11)) (= var3 var12)) (= var4 var13)) (= var6 (writeHeap var14 (nthAddrRange var9 var8) (O_Int var5)))) (is-O_Int (readHeap var14 (nthAddrRange var9 var8)))) (is-O_Int (readHeap var14 (nthAddrRange var9 var8)))) (<= 0 (+ (+ (* (- 1) (+ var7 1)) 100000) (* (- 1) 1))))) (inv_main25 var6 var4 var3 var2 var1 var0 (+ var7 1)))))
(assert (forall ((var0 AddrRange) (var1 Int) (var2 Int) (var3 AddrRange) (var4 Int) (var5 Int) (var6 Heap) (var7 Int) (var8 Int) (var9 AddrRange) (var10 Int) (var11 Heap)) (or (not (and (batchAllocHeapPostHeap emptyHeap var6 (O_Int var5) 100000) (and (and (and (and (and (and (and (and (inv_main16 var11 var10 var9 var8 var7) (not (<= 0 (+ (+ (* (- 1) var7) var10) (* (- 1) 1))))) (not (<= 0 (+ (+ (* (- 1) (+ var8 1)) var10) (* (- 1) 1))))) (= var0 (AddrRange (ite (<= 0 99999) (+ (HeapSize emptyHeap) 1) (HeapSize emptyHeap)) 100000))) (= var1 var7)) (= var2 (+ var8 1))) (= var3 var9)) (= var4 var10)) true))) (inv_main25 var6 var4 var3 var2 var1 var0 0))))
(assert (forall ((var0 AddrRange) (var1 Int) (var2 Int) (var3 AddrRange) (var4 Int) (var5 Int) (var6 Heap) (var7 Int) (var8 Int) (var9 AddrRange) (var10 Int) (var11 Heap)) (or (not (and (and (and (and (and (and (and (and (inv_main16 var11 var10 var9 var8 var7) (not (<= 0 (+ (+ (* (- 1) var7) var10) (* (- 1) 1))))) (not (<= 0 (+ (+ (* (- 1) (+ var8 1)) var10) (* (- 1) 1))))) (= var0 (AddrRange (ite (<= 0 99999) (+ (HeapSize emptyHeap) 1) (HeapSize emptyHeap)) 100000))) (= var1 var7)) (= var2 (+ var8 1))) (= var3 var9)) (= var4 var10)) true)) (batchAllocHeap emptyHeap emptyHeap (O_Int var5) 100000 100000))))
(assert (forall ((var0 Int) (var1 Heap) (var2 Int) (var3 AddrRange) (var4 Int) (var5 Int) (var6 Int) (var7 AddrRange) (var8 AddrRange) (var9 Int) (var10 Int) (var11 Int) (var12 Heap) (var13 Int) (var14 Int) (var15 AddrRange) (var16 Int) (var17 Heap)) (or (not (and (batchAllocHeapPostHeap emptyHeap var12 (O_Int var11) 100000) (and (and (and (and (and (and (and (and (and (and (and (and (and (and (and (inv_main11 var17 var16 var15 var14 var13) (= var4 var13)) (= var2 var14)) (= var7 var15)) (= var9 var16)) (= var1 (writeHeap var17 (nthAddrRange var15 var14) (O_Int var0)))) (is-O_Int (readHeap var17 (nthAddrRange var15 var14)))) (is-O_Int (readHeap var17 (nthAddrRange var15 var14)))) (not (<= 0 (+ (+ (* (- 1) (+ var2 1)) 100000) (* (- 1) 1))))) (not (<= 0 (+ var9 (* (- 1) 1))))) (= var3 (AddrRange (ite (<= 0 99999) (+ (HeapSize emptyHeap) 1) (HeapSize emptyHeap)) 100000))) (= var5 var4)) (= var6 0)) (= var8 var7)) (= var10 var9)) true))) (inv_main25 var12 var10 var8 var6 var5 var3 0))))
(assert (forall ((var0 Int) (var1 Heap) (var2 Int) (var3 AddrRange) (var4 Int) (var5 Int) (var6 Int) (var7 AddrRange) (var8 AddrRange) (var9 Int) (var10 Int) (var11 Int) (var12 Heap) (var13 Int) (var14 Int) (var15 AddrRange) (var16 Int) (var17 Heap)) (or (not (and (and (and (and (and (and (and (and (and (and (and (and (and (and (and (inv_main11 var17 var16 var15 var14 var13) (= var4 var13)) (= var2 var14)) (= var7 var15)) (= var9 var16)) (= var1 (writeHeap var17 (nthAddrRange var15 var14) (O_Int var0)))) (is-O_Int (readHeap var17 (nthAddrRange var15 var14)))) (is-O_Int (readHeap var17 (nthAddrRange var15 var14)))) (not (<= 0 (+ (+ (* (- 1) (+ var2 1)) 100000) (* (- 1) 1))))) (not (<= 0 (+ var9 (* (- 1) 1))))) (= var3 (AddrRange (ite (<= 0 99999) (+ (HeapSize emptyHeap) 1) (HeapSize emptyHeap)) 100000))) (= var5 var4)) (= var6 0)) (= var8 var7)) (= var10 var9)) true)) (batchAllocHeap emptyHeap emptyHeap (O_Int var11) 100000 100000))))
(assert (forall ((var0 AddrRange) (var1 Int) (var2 Int) (var3 AddrRange) (var4 Int) (var5 Int) (var6 Heap) (var7 Int) (var8 Int) (var9 AddrRange) (var10 Int) (var11 Int) (var12 AddrRange) (var13 Int) (var14 Heap)) (or (not (and (and (and (and (and (and (and (and (and (and (inv_main25 var14 var13 var12 var11 var10 var9 var8) (= var7 var8)) (= var0 var9)) (= var1 var10)) (= var2 var11)) (= var3 var12)) (= var4 var13)) (= var6 (writeHeap var14 (nthAddrRange var9 var8) (O_Int var5)))) (is-O_Int (readHeap var14 (nthAddrRange var9 var8)))) (is-O_Int (readHeap var14 (nthAddrRange var9 var8)))) (not (<= 0 (+ (+ (* (- 1) (+ var7 1)) 100000) (* (- 1) 1)))))) (inv_main28 var6 var4 var3 var2 var1 var0 0))))
(assert (forall ((var0 Int) (var1 Int) (var2 AddrRange) (var3 AddrRange) (var4 Int) (var5 Int) (var6 AddrRange) (var7 Int) (var8 Heap) (var9 Int) (var10 Int) (var11 Int) (var12 AddrRange) (var13 Int) (var14 AddrRange) (var15 Int) (var16 Int) (var17 AddrRange) (var18 Int) (var19 Heap)) (or (not (and (and (and (and (and (and (and (and (and (and (and (and (and (inv_main43 var19 var18 var17 var16 var15 var14 var13 var12 var11 var10) (= var0 var10)) (= var1 var11)) (= var2 var12)) (= var9 var13)) (= var3 var14)) (= var4 var15)) (= var5 var16)) (= var6 var17)) (= var7 var18)) (= var8 (writeHeap var19 (nthAddrRange var12 var11) (O_Int var10)))) (is-O_Int (readHeap var19 (nthAddrRange var12 var11)))) (is-O_Int (readHeap var19 (nthAddrRange var12 var11)))) (<= 0 (+ (+ (* (- 1) (+ var9 1)) 100000) (* (- 1) 1))))) (inv_main28 var8 (+ var1 1) var6 var5 var4 var3 (+ var9 1)))))
(assert (forall ((var0 Int) (var1 Int) (var2 AddrRange) (var3 Int) (var4 Int) (var5 AddrRange) (var6 Int) (var7 Heap)) (or (not (and (and (inv_main33 var7 var6 var5 var4 var3 var2 var1 var0) (not (= var0 0))) (<= 0 (+ (+ (* (- 1) (+ var1 1)) 100000) (* (- 1) 1))))) (inv_main28 var7 var6 var5 var4 var3 var2 (+ var1 1)))))
(assert (forall ((var0 Int) (var1 Int) (var2 AddrRange) (var3 Int) (var4 Int) (var5 AddrRange) (var6 Int) (var7 Heap)) (or (not (and (inv_main33 var7 var6 var5 var4 var3 var2 var1 var0) (= var0 0))) (inv_main30 var7 var6 var5 var4 var3 var2 var1))))
(assert (forall ((var0 AddrRange) (var1 Int) (var2 AddrRange) (var3 Int) (var4 Int) (var5 AddrRange) (var6 Int) (var7 Heap) (var8 Int) (var9 Int) (var10 Int) (var11 Int) (var12 Int) (var13 Int) (var14 Int) (var15 AddrRange) (var16 Int) (var17 AddrRange) (var18 Int) (var19 Int) (var20 AddrRange) (var21 Int) (var22 Heap)) (or (not (and (and (and (and (and (and (and (and (and (and (and (and (and (and (and (inv_main38 var22 var21 var20 var19 var18 var17 var16 var15 var14 var13 var12) (= var9 (getInt (readHeap var22 (nthAddrRange var15 var12))))) (= var10 var12)) (= var8 var13)) (= var11 var14)) (= var0 var15)) (= var1 var16)) (= var2 var17)) (= var3 var18)) (= var4 var19)) (= var5 var20)) (= var6 var21)) (= var7 var22)) (is-O_Int (readHeap var22 (nthAddrRange var15 var12)))) (not (= var9 var8))) (<= 0 (+ (+ (* (- 1) (+ var10 1)) var11) (* (- 1) 1))))) (inv_main38 var7 var6 var5 var4 var3 var2 var1 var0 var11 var8 (+ var10 1)))))
(assert (forall ((var0 Int) (var1 AddrRange) (var2 Int) (var3 AddrRange) (var4 Int) (var5 Int) (var6 AddrRange) (var7 Int) (var8 Heap) (var9 Int) (var10 Int) (var11 AddrRange) (var12 Int) (var13 Int) (var14 AddrRange) (var15 Int) (var16 Heap)) (or (not (and (and (and (and (and (and (and (and (and (and (and (and (inv_main28 var16 var15 var14 var13 var12 var11 var10) (= var0 (getInt (readHeap var16 (nthAddrRange var11 var10))))) (= var9 var15)) (= var1 var14)) (= var2 var10)) (= var3 var11)) (= var4 var12)) (= var5 var13)) (= var6 var14)) (= var7 var15)) (= var8 var16)) (is-O_Int (readHeap var16 (nthAddrRange var11 var10)))) (<= 0 (+ var9 (* (- 1) 1))))) (inv_main38 var8 var7 var6 var5 var4 var3 var2 var1 var9 var0 0))))
(assert (forall ((var0 Int) (var1 Int) (var2 AddrRange) (var3 Int) (var4 AddrRange) (var5 Int) (var6 Int) (var7 AddrRange) (var8 Int) (var9 Heap) (var10 Int) (var11 Int) (var12 Int) (var13 Int) (var14 Int) (var15 AddrRange) (var16 Int) (var17 AddrRange) (var18 Int) (var19 Int) (var20 AddrRange) (var21 Int) (var22 Heap)) (or (not (and (and (and (and (and (and (and (and (and (and (and (and (and (and (inv_main38 var22 var21 var20 var19 var18 var17 var16 var15 var14 var13 var12) (= var11 (getInt (readHeap var22 (nthAddrRange var15 var12))))) (= var0 var12)) (= var10 var13)) (= var1 var14)) (= var2 var15)) (= var3 var16)) (= var4 var17)) (= var5 var18)) (= var6 var19)) (= var7 var20)) (= var8 var21)) (= var9 var22)) (is-O_Int (readHeap var22 (nthAddrRange var15 var12)))) (= var11 var10))) (inv_main33 var9 var8 var7 var6 var5 var4 var3 0))))
(assert (forall ((var0 AddrRange) (var1 Int) (var2 AddrRange) (var3 Int) (var4 Int) (var5 AddrRange) (var6 Int) (var7 Heap) (var8 Int) (var9 Int) (var10 Int) (var11 Int) (var12 Int) (var13 Int) (var14 Int) (var15 AddrRange) (var16 Int) (var17 AddrRange) (var18 Int) (var19 Int) (var20 AddrRange) (var21 Int) (var22 Heap)) (or (not (and (and (and (and (and (and (and (and (and (and (and (and (and (and (and (inv_main38 var22 var21 var20 var19 var18 var17 var16 var15 var14 var13 var12) (= var9 (getInt (readHeap var22 (nthAddrRange var15 var12))))) (= var10 var12)) (= var8 var13)) (= var11 var14)) (= var0 var15)) (= var1 var16)) (= var2 var17)) (= var3 var18)) (= var4 var19)) (= var5 var20)) (= var6 var21)) (= var7 var22)) (is-O_Int (readHeap var22 (nthAddrRange var15 var12)))) (not (= var9 var8))) (not (<= 0 (+ (+ (* (- 1) (+ var10 1)) var11) (* (- 1) 1)))))) (inv_main33 var7 var6 var5 var4 var3 var2 var1 0))))
(assert (forall ((var0 Int) (var1 AddrRange) (var2 Int) (var3 AddrRange) (var4 Int) (var5 Int) (var6 AddrRange) (var7 Int) (var8 Heap) (var9 Int) (var10 Int) (var11 AddrRange) (var12 Int) (var13 Int) (var14 AddrRange) (var15 Int) (var16 Heap)) (or (not (and (and (and (and (and (and (and (and (and (and (and (and (inv_main28 var16 var15 var14 var13 var12 var11 var10) (= var0 (getInt (readHeap var16 (nthAddrRange var11 var10))))) (= var9 var15)) (= var1 var14)) (= var2 var10)) (= var3 var11)) (= var4 var12)) (= var5 var13)) (= var6 var14)) (= var7 var15)) (= var8 var16)) (is-O_Int (readHeap var16 (nthAddrRange var11 var10)))) (not (<= 0 (+ var9 (* (- 1) 1)))))) (inv_main33 var8 var7 var6 var5 var4 var3 var2 0))))
(assert (forall ((var0 Int) (var1 Int) (var2 AddrRange) (var3 AddrRange) (var4 Int) (var5 Int) (var6 AddrRange) (var7 Int) (var8 Heap) (var9 Int) (var10 Int) (var11 Int) (var12 AddrRange) (var13 Int) (var14 AddrRange) (var15 Int) (var16 Int) (var17 AddrRange) (var18 Int) (var19 Heap)) (or (not (and (and (and (and (and (and (and (and (and (and (and (and (and (inv_main43 var19 var18 var17 var16 var15 var14 var13 var12 var11 var10) (= var0 var10)) (= var1 var11)) (= var2 var12)) (= var9 var13)) (= var3 var14)) (= var4 var15)) (= var5 var16)) (= var6 var17)) (= var7 var18)) (= var8 (writeHeap var19 (nthAddrRange var12 var11) (O_Int var10)))) (is-O_Int (readHeap var19 (nthAddrRange var12 var11)))) (is-O_Int (readHeap var19 (nthAddrRange var12 var11)))) (not (<= 0 (+ (+ (* (- 1) (+ var9 1)) 100000) (* (- 1) 1)))))) (inv_main48 var8 (+ var1 1) var6 0 var4 var3 (+ var9 1)))))
(assert (forall ((var0 Int) (var1 Int) (var2 AddrRange) (var3 Int) (var4 Int) (var5 AddrRange) (var6 Int) (var7 Heap)) (or (not (and (and (inv_main33 var7 var6 var5 var4 var3 var2 var1 var0) (not (= var0 0))) (not (<= 0 (+ (+ (* (- 1) (+ var1 1)) 100000) (* (- 1) 1)))))) (inv_main48 var7 var6 var5 0 var3 var2 (+ var1 1)))))
(assert (forall ((var0 Int) (var1 AddrRange) (var2 Int) (var3 Int) (var4 AddrRange) (var5 Int) (var6 Heap)) (or (not (and (and (inv_main48 var6 var5 var4 var3 var2 var1 var0) (<= 0 (+ (+ (* (- 1) var3) var5) (* (- 1) 1)))) (not (<= 0 (+ (+ (* (- 1) (+ var3 1)) var5) (* (- 1) 1)))))) (inv_main48 var6 var5 var4 (+ var3 1) (+ var3 1) var1 var0))))
(assert (forall ((var0 Int) (var1 AddrRange) (var2 Int) (var3 Int) (var4 AddrRange) (var5 Int) (var6 Heap)) (or (not (and (and (and (inv_main52 var6 var5 var4 var3 var2 var1 var0) (is-O_Int (readHeap var6 (nthAddrRange var4 var2)))) (is-O_Int (readHeap var6 (nthAddrRange var4 var3)))) (not (<= 0 (+ (+ (* (- 1) (+ var2 1)) var5) (* (- 1) 1)))))) (inv_main48 var6 var5 var4 (+ var3 1) (+ var2 1) var1 var0))))
(assert (forall ((var0 Int) (var1 AddrRange) (var2 Int) (var3 Int) (var4 AddrRange) (var5 Int) (var6 Heap)) (or (not (and (and (inv_main48 var6 var5 var4 var3 var2 var1 var0) (<= 0 (+ (+ (* (- 1) var3) var5) (* (- 1) 1)))) (<= 0 (+ (+ (* (- 1) (+ var3 1)) var5) (* (- 1) 1))))) (inv_main52 var6 var5 var4 var3 (+ var3 1) var1 var0))))
(assert (forall ((var0 Int) (var1 AddrRange) (var2 Int) (var3 Int) (var4 AddrRange) (var5 Int) (var6 Heap)) (or (not (and (and (and (inv_main52 var6 var5 var4 var3 var2 var1 var0) (is-O_Int (readHeap var6 (nthAddrRange var4 var2)))) (is-O_Int (readHeap var6 (nthAddrRange var4 var3)))) (<= 0 (+ (+ (* (- 1) (+ var2 1)) var5) (* (- 1) 1))))) (inv_main52 var6 var5 var4 var3 (+ var2 1) var1 var0))))
(assert (forall ((var0 Int) (var1 AddrRange) (var2 Int) (var3 Int) (var4 AddrRange) (var5 Int) (var6 Heap)) (or (not (and (inv_main30 var6 var5 var4 var3 var2 var1 var0) (is-O_Int (readHeap var6 (nthAddrRange var1 var0))))) (inv_main43 var6 var5 var4 var3 var2 var1 var0 var4 var5 (getInt (readHeap var6 (nthAddrRange var1 var0)))))))
(assert (forall ((var0 Int) (var1 Int) (var2 AddrRange) (var3 Int) (var4 Heap)) (or (not (inv_main6 var4 var3 var2 var1 var0)) (inv_main11 var4 var3 var2 0 var0))))
(assert (forall ((var0 Int) (var1 AddrRange) (var2 Int) (var3 Int) (var4 Heap) (var5 Int) (var6 Int) (var7 Int) (var8 AddrRange) (var9 Int) (var10 Heap)) (or (not (and (and (and (and (and (and (and (and (inv_main11 var10 var9 var8 var7 var6) (= var0 var6)) (= var5 var7)) (= var1 var8)) (= var2 var9)) (= var4 (writeHeap var10 (nthAddrRange var8 var7) (O_Int var3)))) (is-O_Int (readHeap var10 (nthAddrRange var8 var7)))) (is-O_Int (readHeap var10 (nthAddrRange var8 var7)))) (<= 0 (+ (+ (* (- 1) (+ var5 1)) 100000) (* (- 1) 1))))) (inv_main11 var4 var2 var1 (+ var5 1) var0))))
(assert (forall ((var0 Int) (var1 Int) (var2 AddrRange) (var3 Int) (var4 Heap)) (not (and (inv_main11 var4 var3 var2 var1 var0) (not (is-O_Int (readHeap var4 (nthAddrRange var2 var1))))))))
(assert (forall ((var0 Int) (var1 Int) (var2 AddrRange) (var3 Int) (var4 Heap)) (not (and (and (inv_main11 var4 var3 var2 var1 var0) (not (withinHeap var2 (nthAddrRange var2 var1)))) (is-O_Int (readHeap var4 (nthAddrRange var2 var1)))))))
(assert (forall ((var0 Int) (var1 Int) (var2 AddrRange) (var3 Int) (var4 Heap)) (not (and (and (inv_main11 var4 var3 var2 var1 var0) (not (is-O_Int (readHeap var4 (nthAddrRange var2 var1))))) (is-O_Int (readHeap var4 (nthAddrRange var2 var1)))))))
(assert (forall ((var0 Int) (var1 Int) (var2 AddrRange) (var3 Int) (var4 Heap)) (not (and (inv_main17 var4 var3 var2 var1 var0) (not (is-O_Int (readHeap var4 (nthAddrRange var2 var1))))))))
(assert (forall ((var0 Int) (var1 Int) (var2 AddrRange) (var3 Int) (var4 Heap)) (not (and (inv_main17 var4 var3 var2 var1 var0) (not (withinHeap var2 (nthAddrRange var2 var1)))))))
(assert (forall ((var0 Int) (var1 Int) (var2 AddrRange) (var3 Int) (var4 Heap)) (not (and (inv_main17 var4 var3 var2 var1 var0) (not (is-O_Int (readHeap var4 (nthAddrRange var2 var0))))))))
(assert (forall ((var0 Int) (var1 Int) (var2 AddrRange) (var3 Int) (var4 Heap)) (not (and (inv_main17 var4 var3 var2 var1 var0) (not (withinHeap var2 (nthAddrRange var2 var0)))))))
(assert (forall ((var0 Int) (var1 Int) (var2 AddrRange) (var3 Int) (var4 Heap)) (not (and (inv_main17 var4 var3 var2 var1 var0) (not (is-O_Int (readHeap var4 (nthAddrRange var2 var1))))))))
(assert (forall ((var0 Int) (var1 Int) (var2 AddrRange) (var3 Int) (var4 Heap)) (not (and (and (inv_main17 var4 var3 var2 var1 var0) (not (withinHeap var2 (nthAddrRange var2 var1)))) (is-O_Int (readHeap var4 (nthAddrRange var2 var1)))))))
(assert (forall ((var0 Int) (var1 Int) (var2 AddrRange) (var3 Int) (var4 Heap)) (not (and (and (inv_main17 var4 var3 var2 var1 var0) (not (is-O_Int (readHeap var4 (nthAddrRange var2 var0))))) (is-O_Int (readHeap var4 (nthAddrRange var2 var1)))))))
(assert (forall ((var0 Int) (var1 Int) (var2 AddrRange) (var3 Int) (var4 Heap)) (not (and (and (and (inv_main17 var4 var3 var2 var1 var0) (not (withinHeap var2 (nthAddrRange var2 var0)))) (is-O_Int (readHeap var4 (nthAddrRange var2 var0)))) (is-O_Int (readHeap var4 (nthAddrRange var2 var1)))))))
(assert (forall ((var0 Int) (var1 Int) (var2 AddrRange) (var3 Int) (var4 Heap)) (not (and (and (and (inv_main17 var4 var3 var2 var1 var0) (= (getInt (readHeap var4 (nthAddrRange var2 var1))) (getInt (readHeap var4 (nthAddrRange var2 var0))))) (is-O_Int (readHeap var4 (nthAddrRange var2 var0)))) (is-O_Int (readHeap var4 (nthAddrRange var2 var1)))))))
(assert (forall ((var0 Int) (var1 AddrRange) (var2 Int) (var3 Int) (var4 AddrRange) (var5 Int) (var6 Heap)) (not (and (inv_main25 var6 var5 var4 var3 var2 var1 var0) (not (is-O_Int (readHeap var6 (nthAddrRange var1 var0))))))))
(assert (forall ((var0 Int) (var1 AddrRange) (var2 Int) (var3 Int) (var4 AddrRange) (var5 Int) (var6 Heap)) (not (and (and (inv_main25 var6 var5 var4 var3 var2 var1 var0) (not (withinHeap var1 (nthAddrRange var1 var0)))) (is-O_Int (readHeap var6 (nthAddrRange var1 var0)))))))
(assert (forall ((var0 Int) (var1 AddrRange) (var2 Int) (var3 Int) (var4 AddrRange) (var5 Int) (var6 Heap)) (not (and (and (inv_main25 var6 var5 var4 var3 var2 var1 var0) (not (is-O_Int (readHeap var6 (nthAddrRange var1 var0))))) (is-O_Int (readHeap var6 (nthAddrRange var1 var0)))))))
(assert (forall ((var0 Int) (var1 AddrRange) (var2 Int) (var3 Int) (var4 AddrRange) (var5 Int) (var6 Heap)) (not (and (inv_main28 var6 var5 var4 var3 var2 var1 var0) (not (is-O_Int (readHeap var6 (nthAddrRange var1 var0))))))))
(assert (forall ((var0 Int) (var1 AddrRange) (var2 Int) (var3 Int) (var4 AddrRange) (var5 Int) (var6 Heap)) (not (and (and (inv_main28 var6 var5 var4 var3 var2 var1 var0) (not (withinHeap var1 (nthAddrRange var1 var0)))) (is-O_Int (readHeap var6 (nthAddrRange var1 var0)))))))
(assert (forall ((var0 Int) (var1 Int) (var2 Int) (var3 AddrRange) (var4 Int) (var5 AddrRange) (var6 Int) (var7 Int) (var8 AddrRange) (var9 Int) (var10 Heap)) (not (and (inv_main38 var10 var9 var8 var7 var6 var5 var4 var3 var2 var1 var0) (not (is-O_Int (readHeap var10 (nthAddrRange var3 var0))))))))
(assert (forall ((var0 Int) (var1 Int) (var2 Int) (var3 AddrRange) (var4 Int) (var5 AddrRange) (var6 Int) (var7 Int) (var8 AddrRange) (var9 Int) (var10 Heap)) (not (and (and (inv_main38 var10 var9 var8 var7 var6 var5 var4 var3 var2 var1 var0) (not (withinHeap var3 (nthAddrRange var3 var0)))) (is-O_Int (readHeap var10 (nthAddrRange var3 var0)))))))
(assert (forall ((var0 Int) (var1 AddrRange) (var2 Int) (var3 Int) (var4 AddrRange) (var5 Int) (var6 Heap)) (not (and (inv_main30 var6 var5 var4 var3 var2 var1 var0) (not (is-O_Int (readHeap var6 (nthAddrRange var1 var0))))))))
(assert (forall ((var0 Int) (var1 AddrRange) (var2 Int) (var3 Int) (var4 AddrRange) (var5 Int) (var6 Heap)) (not (and (and (inv_main30 var6 var5 var4 var3 var2 var1 var0) (not (withinHeap var1 (nthAddrRange var1 var0)))) (is-O_Int (readHeap var6 (nthAddrRange var1 var0)))))))
(assert (forall ((var0 Int) (var1 Int) (var2 AddrRange) (var3 Int) (var4 AddrRange) (var5 Int) (var6 Int) (var7 AddrRange) (var8 Int) (var9 Heap)) (not (and (inv_main43 var9 var8 var7 var6 var5 var4 var3 var2 var1 var0) (not (is-O_Int (readHeap var9 (nthAddrRange var2 var1))))))))
(assert (forall ((var0 Int) (var1 Int) (var2 AddrRange) (var3 Int) (var4 AddrRange) (var5 Int) (var6 Int) (var7 AddrRange) (var8 Int) (var9 Heap)) (not (and (and (inv_main43 var9 var8 var7 var6 var5 var4 var3 var2 var1 var0) (not (withinHeap var2 (nthAddrRange var2 var1)))) (is-O_Int (readHeap var9 (nthAddrRange var2 var1)))))))
(assert (forall ((var0 Int) (var1 Int) (var2 AddrRange) (var3 Int) (var4 AddrRange) (var5 Int) (var6 Int) (var7 AddrRange) (var8 Int) (var9 Heap)) (not (and (and (inv_main43 var9 var8 var7 var6 var5 var4 var3 var2 var1 var0) (not (is-O_Int (readHeap var9 (nthAddrRange var2 var1))))) (is-O_Int (readHeap var9 (nthAddrRange var2 var1)))))))
(assert (forall ((var0 Int) (var1 AddrRange) (var2 Int) (var3 Int) (var4 AddrRange) (var5 Int) (var6 Heap)) (not (and (inv_main52 var6 var5 var4 var3 var2 var1 var0) (not (is-O_Int (readHeap var6 (nthAddrRange var4 var3))))))))
(assert (forall ((var0 Int) (var1 AddrRange) (var2 Int) (var3 Int) (var4 AddrRange) (var5 Int) (var6 Heap)) (not (and (inv_main52 var6 var5 var4 var3 var2 var1 var0) (not (withinHeap var4 (nthAddrRange var4 var3)))))))
(assert (forall ((var0 Int) (var1 AddrRange) (var2 Int) (var3 Int) (var4 AddrRange) (var5 Int) (var6 Heap)) (not (and (inv_main52 var6 var5 var4 var3 var2 var1 var0) (not (is-O_Int (readHeap var6 (nthAddrRange var4 var2))))))))
(assert (forall ((var0 Int) (var1 AddrRange) (var2 Int) (var3 Int) (var4 AddrRange) (var5 Int) (var6 Heap)) (not (and (inv_main52 var6 var5 var4 var3 var2 var1 var0) (not (withinHeap var4 (nthAddrRange var4 var2)))))))
(assert (forall ((var0 Int) (var1 AddrRange) (var2 Int) (var3 Int) (var4 AddrRange) (var5 Int) (var6 Heap)) (not (and (inv_main52 var6 var5 var4 var3 var2 var1 var0) (not (is-O_Int (readHeap var6 (nthAddrRange var4 var3))))))))
(assert (forall ((var0 Int) (var1 AddrRange) (var2 Int) (var3 Int) (var4 AddrRange) (var5 Int) (var6 Heap)) (not (and (and (inv_main52 var6 var5 var4 var3 var2 var1 var0) (not (withinHeap var4 (nthAddrRange var4 var3)))) (is-O_Int (readHeap var6 (nthAddrRange var4 var3)))))))
(assert (forall ((var0 Int) (var1 AddrRange) (var2 Int) (var3 Int) (var4 AddrRange) (var5 Int) (var6 Heap)) (not (and (and (inv_main52 var6 var5 var4 var3 var2 var1 var0) (not (is-O_Int (readHeap var6 (nthAddrRange var4 var2))))) (is-O_Int (readHeap var6 (nthAddrRange var4 var3)))))))
(assert (forall ((var0 Int) (var1 AddrRange) (var2 Int) (var3 Int) (var4 AddrRange) (var5 Int) (var6 Heap)) (not (and (and (and (inv_main52 var6 var5 var4 var3 var2 var1 var0) (not (withinHeap var4 (nthAddrRange var4 var2)))) (is-O_Int (readHeap var6 (nthAddrRange var4 var2)))) (is-O_Int (readHeap var6 (nthAddrRange var4 var3)))))))
(assert (forall ((var0 Int) (var1 AddrRange) (var2 Int) (var3 Int) (var4 AddrRange) (var5 Int) (var6 Heap)) (not (and (and (and (inv_main52 var6 var5 var4 var3 var2 var1 var0) (= (getInt (readHeap var6 (nthAddrRange var4 var3))) (getInt (readHeap var6 (nthAddrRange var4 var2))))) (is-O_Int (readHeap var6 (nthAddrRange var4 var2)))) (is-O_Int (readHeap var6 (nthAddrRange var4 var3)))))))
(check-sat)
